c Reduced graph for zeroin.i.1_3 generated by Cyril Grelier
p edge 92 2693
e 1 2
e 1 3
e 1 4
e 1 5
e 1 6
e 1 7
e 1 9
e 1 10
e 1 11
e 1 12
e 1 13
e 1 14
e 1 16
e 1 17
e 1 18
e 1 19
e 1 20
e 1 21
e 1 25
e 1 26
e 1 27
e 1 28
e 1 29
e 1 31
e 1 32
e 1 33
e 1 34
e 1 38
e 1 39
e 1 40
e 1 42
e 1 43
e 1 44
e 1 45
e 1 48
e 1 49
e 1 50
e 1 51
e 1 52
e 1 53
e 1 54
e 1 55
e 1 56
e 1 57
e 1 59
e 1 60
e 1 61
e 1 62
e 1 63
e 1 64
e 1 65
e 1 66
e 1 67
e 1 69
e 1 70
e 1 71
e 1 72
e 1 73
e 1 74
e 1 75
e 1 76
e 1 77
e 1 78
e 1 79
e 1 80
e 1 81
e 1 82
e 1 83
e 1 84
e 1 85
e 1 86
e 1 87
e 1 88
e 1 89
e 1 90
e 1 91
e 1 92
e 2 3
e 2 4
e 2 5
e 2 6
e 2 7
e 2 9
e 2 10
e 2 11
e 2 12
e 2 16
e 2 17
e 2 18
e 2 19
e 2 20
e 2 21
e 2 25
e 2 26
e 2 27
e 2 28
e 2 29
e 2 31
e 2 32
e 2 33
e 2 38
e 2 39
e 2 40
e 2 42
e 2 43
e 2 44
e 2 45
e 2 48
e 2 49
e 2 50
e 2 51
e 2 52
e 2 53
e 2 54
e 2 57
e 2 59
e 2 60
e 2 61
e 2 62
e 2 63
e 2 65
e 2 66
e 2 67
e 2 69
e 2 70
e 2 71
e 2 72
e 2 73
e 2 74
e 2 75
e 2 76
e 2 77
e 2 78
e 2 79
e 2 80
e 2 81
e 2 82
e 2 83
e 2 84
e 2 85
e 2 86
e 2 88
e 2 89
e 2 90
e 2 91
e 2 92
e 3 9
e 3 10
e 3 11
e 3 16
e 3 17
e 3 18
e 3 20
e 3 25
e 3 26
e 3 27
e 3 31
e 3 32
e 3 38
e 3 39
e 3 40
e 3 42
e 3 43
e 3 44
e 3 45
e 3 48
e 3 49
e 3 50
e 3 51
e 3 52
e 3 53
e 3 54
e 3 57
e 3 59
e 3 60
e 3 61
e 3 65
e 3 66
e 3 69
e 3 70
e 3 73
e 3 74
e 3 76
e 3 77
e 3 78
e 3 79
e 3 80
e 3 81
e 3 82
e 3 83
e 3 84
e 3 89
e 3 91
e 3 92
e 4 9
e 4 10
e 4 11
e 4 16
e 4 17
e 4 18
e 4 20
e 4 25
e 4 26
e 4 31
e 4 32
e 4 38
e 4 39
e 4 40
e 4 42
e 4 43
e 4 44
e 4 45
e 4 48
e 4 49
e 4 50
e 4 51
e 4 52
e 4 53
e 4 54
e 4 57
e 4 59
e 4 60
e 4 61
e 4 62
e 4 65
e 4 66
e 4 69
e 4 70
e 4 73
e 4 74
e 4 76
e 4 77
e 4 78
e 4 79
e 4 80
e 4 81
e 4 82
e 4 83
e 4 84
e 4 89
e 4 91
e 4 92
e 5 9
e 5 10
e 5 12
e 5 16
e 5 17
e 5 20
e 5 25
e 5 26
e 5 31
e 5 32
e 5 38
e 5 39
e 5 40
e 5 42
e 5 43
e 5 44
e 5 45
e 5 48
e 5 49
e 5 50
e 5 51
e 5 52
e 5 53
e 5 54
e 5 57
e 5 59
e 5 60
e 5 61
e 5 65
e 5 67
e 5 69
e 5 70
e 5 71
e 5 73
e 5 74
e 5 76
e 5 77
e 5 79
e 5 80
e 5 81
e 5 82
e 5 83
e 5 89
e 5 90
e 5 91
e 5 92
e 6 7
e 6 9
e 6 10
e 6 16
e 6 17
e 6 20
e 6 25
e 6 26
e 6 31
e 6 32
e 6 38
e 6 39
e 6 40
e 6 42
e 6 43
e 6 44
e 6 45
e 6 48
e 6 49
e 6 50
e 6 51
e 6 52
e 6 53
e 6 54
e 6 57
e 6 59
e 6 60
e 6 61
e 6 65
e 6 69
e 6 70
e 6 73
e 6 74
e 6 76
e 6 77
e 6 79
e 6 80
e 6 81
e 6 82
e 6 83
e 6 84
e 6 85
e 6 89
e 6 91
e 6 92
e 7 9
e 7 10
e 7 16
e 7 17
e 7 20
e 7 25
e 7 26
e 7 31
e 7 32
e 7 38
e 7 39
e 7 40
e 7 42
e 7 43
e 7 44
e 7 45
e 7 48
e 7 49
e 7 50
e 7 51
e 7 52
e 7 53
e 7 54
e 7 57
e 7 59
e 7 60
e 7 61
e 7 65
e 7 69
e 7 70
e 7 73
e 7 74
e 7 76
e 7 77
e 7 79
e 7 80
e 7 81
e 7 82
e 7 83
e 7 84
e 7 89
e 7 91
e 7 92
e 8 13
e 8 15
e 8 22
e 8 23
e 8 24
e 8 30
e 8 34
e 8 35
e 8 36
e 8 37
e 8 39
e 8 41
e 8 43
e 8 46
e 8 47
e 8 51
e 8 55
e 8 57
e 8 58
e 8 64
e 8 65
e 8 68
e 8 76
e 8 80
e 8 82
e 8 87
e 8 89
e 8 91
e 9 10
e 9 11
e 9 12
e 9 13
e 9 14
e 9 16
e 9 17
e 9 18
e 9 19
e 9 20
e 9 21
e 9 25
e 9 26
e 9 27
e 9 28
e 9 29
e 9 31
e 9 32
e 9 33
e 9 34
e 9 38
e 9 39
e 9 40
e 9 42
e 9 43
e 9 44
e 9 45
e 9 48
e 9 49
e 9 50
e 9 51
e 9 52
e 9 53
e 9 54
e 9 55
e 9 56
e 9 57
e 9 59
e 9 60
e 9 61
e 9 62
e 9 63
e 9 64
e 9 65
e 9 66
e 9 67
e 9 69
e 9 70
e 9 71
e 9 72
e 9 73
e 9 74
e 9 75
e 9 76
e 9 77
e 9 78
e 9 79
e 9 80
e 9 81
e 9 82
e 9 83
e 9 84
e 9 85
e 9 86
e 9 87
e 9 88
e 9 89
e 9 90
e 9 91
e 9 92
e 10 11
e 10 12
e 10 13
e 10 16
e 10 17
e 10 18
e 10 19
e 10 20
e 10 21
e 10 25
e 10 26
e 10 27
e 10 28
e 10 31
e 10 32
e 10 33
e 10 34
e 10 38
e 10 39
e 10 40
e 10 42
e 10 43
e 10 44
e 10 45
e 10 48
e 10 49
e 10 50
e 10 51
e 10 52
e 10 53
e 10 54
e 10 55
e 10 57
e 10 59
e 10 60
e 10 61
e 10 62
e 10 63
e 10 64
e 10 65
e 10 66
e 10 67
e 10 69
e 10 70
e 10 71
e 10 73
e 10 74
e 10 76
e 10 77
e 10 78
e 10 79
e 10 80
e 10 81
e 10 82
e 10 83
e 10 84
e 10 85
e 10 86
e 10 87
e 10 89
e 10 90
e 10 91
e 10 92
e 11 16
e 11 17
e 11 18
e 11 20
e 11 21
e 11 25
e 11 26
e 11 27
e 11 31
e 11 32
e 11 38
e 11 39
e 11 40
e 11 42
e 11 43
e 11 44
e 11 45
e 11 48
e 11 49
e 11 50
e 11 51
e 11 52
e 11 53
e 11 54
e 11 57
e 11 59
e 11 60
e 11 61
e 11 62
e 11 65
e 11 66
e 11 69
e 11 70
e 11 73
e 11 74
e 11 76
e 11 77
e 11 78
e 11 79
e 11 80
e 11 81
e 11 82
e 11 83
e 11 84
e 11 89
e 11 91
e 11 92
e 12 16
e 12 17
e 12 20
e 12 25
e 12 26
e 12 31
e 12 32
e 12 38
e 12 39
e 12 40
e 12 42
e 12 43
e 12 44
e 12 45
e 12 48
e 12 49
e 12 50
e 12 51
e 12 52
e 12 53
e 12 54
e 12 57
e 12 59
e 12 60
e 12 61
e 12 65
e 12 67
e 12 69
e 12 70
e 12 71
e 12 73
e 12 74
e 12 76
e 12 77
e 12 79
e 12 80
e 12 81
e 12 82
e 12 83
e 12 84
e 12 89
e 12 90
e 12 91
e 12 92
e 13 15
e 13 17
e 13 21
e 13 22
e 13 23
e 13 24
e 13 30
e 13 31
e 13 32
e 13 33
e 13 34
e 13 35
e 13 36
e 13 37
e 13 38
e 13 39
e 13 41
e 13 43
e 13 44
e 13 46
e 13 47
e 13 51
e 13 52
e 13 53
e 13 54
e 13 55
e 13 56
e 13 57
e 13 58
e 13 59
e 13 60
e 13 64
e 13 65
e 13 68
e 13 73
e 13 76
e 13 80
e 13 82
e 13 87
e 13 89
e 13 91
e 14 16
e 14 20
e 14 25
e 14 26
e 14 31
e 14 38
e 14 42
e 14 43
e 14 45
e 14 48
e 14 49
e 14 50
e 14 51
e 14 56
e 14 57
e 14 59
e 14 65
e 14 69
e 14 73
e 14 74
e 14 76
e 14 77
e 14 79
e 14 80
e 14 81
e 14 82
e 14 83
e 14 89
e 14 91
e 14 92
e 15 16
e 15 22
e 15 23
e 15 24
e 15 25
e 15 30
e 15 34
e 15 35
e 15 36
e 15 37
e 15 39
e 15 41
e 15 42
e 15 46
e 15 47
e 15 48
e 15 49
e 15 50
e 15 55
e 15 58
e 15 64
e 15 68
e 15 79
e 15 81
e 15 82
e 15 87
e 15 92
e 16 17
e 16 18
e 16 19
e 16 20
e 16 21
e 16 22
e 16 25
e 16 26
e 16 27
e 16 28
e 16 29
e 16 30
e 16 31
e 16 32
e 16 33
e 16 35
e 16 36
e 16 38
e 16 40
e 16 42
e 16 43
e 16 44
e 16 45
e 16 46
e 16 47
e 16 48
e 16 49
e 16 50
e 16 51
e 16 52
e 16 53
e 16 54
e 16 56
e 16 57
e 16 58
e 16 59
e 16 60
e 16 61
e 16 62
e 16 63
e 16 65
e 16 66
e 16 67
e 16 68
e 16 69
e 16 70
e 16 71
e 16 72
e 16 73
e 16 74
e 16 75
e 16 76
e 16 77
e 16 78
e 16 79
e 16 80
e 16 81
e 16 83
e 16 84
e 16 85
e 16 86
e 16 88
e 16 89
e 16 90
e 16 91
e 16 92
e 17 18
e 17 19
e 17 20
e 17 21
e 17 25
e 17 26
e 17 27
e 17 28
e 17 29
e 17 31
e 17 32
e 17 33
e 17 34
e 17 38
e 17 39
e 17 40
e 17 42
e 17 43
e 17 44
e 17 45
e 17 48
e 17 49
e 17 50
e 17 51
e 17 52
e 17 53
e 17 54
e 17 55
e 17 57
e 17 59
e 17 60
e 17 61
e 17 62
e 17 63
e 17 64
e 17 65
e 17 66
e 17 67
e 17 69
e 17 70
e 17 71
e 17 72
e 17 73
e 17 74
e 17 75
e 17 76
e 17 77
e 17 78
e 17 79
e 17 80
e 17 81
e 17 82
e 17 83
e 17 84
e 17 85
e 17 86
e 17 87
e 17 88
e 17 89
e 17 90
e 17 91
e 17 92
e 18 20
e 18 21
e 18 25
e 18 26
e 18 31
e 18 32
e 18 38
e 18 39
e 18 40
e 18 42
e 18 43
e 18 44
e 18 45
e 18 48
e 18 49
e 18 50
e 18 51
e 18 52
e 18 53
e 18 54
e 18 57
e 18 59
e 18 60
e 18 61
e 18 62
e 18 65
e 18 66
e 18 69
e 18 70
e 18 73
e 18 74
e 18 76
e 18 77
e 18 78
e 18 79
e 18 80
e 18 81
e 18 82
e 18 83
e 18 84
e 18 89
e 18 91
e 18 92
e 19 20
e 19 21
e 19 25
e 19 26
e 19 31
e 19 32
e 19 33
e 19 38
e 19 39
e 19 40
e 19 42
e 19 43
e 19 44
e 19 45
e 19 48
e 19 49
e 19 50
e 19 51
e 19 52
e 19 53
e 19 54
e 19 57
e 19 59
e 19 60
e 19 61
e 19 65
e 19 69
e 19 70
e 19 73
e 19 74
e 19 76
e 19 77
e 19 79
e 19 80
e 19 81
e 19 82
e 19 83
e 19 89
e 19 91
e 19 92
e 20 21
e 20 22
e 20 25
e 20 26
e 20 27
e 20 28
e 20 29
e 20 31
e 20 32
e 20 33
e 20 35
e 20 38
e 20 40
e 20 42
e 20 43
e 20 44
e 20 45
e 20 46
e 20 48
e 20 49
e 20 50
e 20 51
e 20 52
e 20 53
e 20 54
e 20 56
e 20 57
e 20 58
e 20 59
e 20 60
e 20 61
e 20 62
e 20 63
e 20 65
e 20 66
e 20 67
e 20 68
e 20 69
e 20 70
e 20 71
e 20 72
e 20 73
e 20 74
e 20 75
e 20 76
e 20 77
e 20 78
e 20 79
e 20 80
e 20 81
e 20 83
e 20 84
e 20 85
e 20 86
e 20 88
e 20 89
e 20 90
e 20 91
e 20 92
e 21 25
e 21 26
e 21 28
e 21 29
e 21 31
e 21 32
e 21 33
e 21 34
e 21 38
e 21 39
e 21 40
e 21 42
e 21 43
e 21 44
e 21 45
e 21 48
e 21 49
e 21 50
e 21 51
e 21 52
e 21 53
e 21 54
e 21 55
e 21 56
e 21 57
e 21 59
e 21 60
e 21 61
e 21 63
e 21 64
e 21 65
e 21 66
e 21 69
e 21 70
e 21 72
e 21 73
e 21 74
e 21 75
e 21 76
e 21 77
e 21 79
e 21 80
e 21 81
e 21 82
e 21 83
e 21 84
e 21 86
e 21 87
e 21 88
e 21 89
e 21 91
e 21 92
e 22 23
e 22 24
e 22 25
e 22 26
e 22 30
e 22 34
e 22 35
e 22 36
e 22 37
e 22 39
e 22 41
e 22 42
e 22 45
e 22 46
e 22 47
e 22 48
e 22 49
e 22 50
e 22 55
e 22 58
e 22 64
e 22 68
e 22 69
e 22 74
e 22 79
e 22 81
e 22 82
e 22 87
e 22 92
e 23 24
e 23 30
e 23 34
e 23 35
e 23 36
e 23 37
e 23 39
e 23 41
e 23 46
e 23 47
e 23 51
e 23 55
e 23 57
e 23 58
e 23 64
e 23 65
e 23 68
e 23 76
e 23 80
e 23 82
e 23 87
e 23 89
e 23 91
e 24 30
e 24 34
e 24 35
e 24 36
e 24 37
e 24 39
e 24 41
e 24 46
e 24 47
e 24 55
e 24 58
e 24 64
e 24 68
e 24 80
e 24 82
e 24 87
e 25 26
e 25 27
e 25 28
e 25 29
e 25 30
e 25 31
e 25 32
e 25 33
e 25 35
e 25 36
e 25 38
e 25 40
e 25 42
e 25 43
e 25 44
e 25 45
e 25 46
e 25 47
e 25 48
e 25 49
e 25 50
e 25 51
e 25 52
e 25 53
e 25 54
e 25 56
e 25 57
e 25 58
e 25 59
e 25 60
e 25 61
e 25 62
e 25 63
e 25 65
e 25 66
e 25 67
e 25 68
e 25 69
e 25 70
e 25 71
e 25 72
e 25 73
e 25 74
e 25 75
e 25 76
e 25 77
e 25 78
e 25 79
e 25 80
e 25 81
e 25 83
e 25 84
e 25 85
e 25 86
e 25 88
e 25 89
e 25 90
e 25 91
e 25 92
e 26 27
e 26 28
e 26 29
e 26 31
e 26 32
e 26 33
e 26 38
e 26 40
e 26 42
e 26 43
e 26 44
e 26 45
e 26 48
e 26 49
e 26 50
e 26 51
e 26 52
e 26 53
e 26 54
e 26 56
e 26 57
e 26 59
e 26 60
e 26 61
e 26 62
e 26 63
e 26 65
e 26 66
e 26 67
e 26 68
e 26 69
e 26 70
e 26 71
e 26 72
e 26 73
e 26 74
e 26 75
e 26 76
e 26 77
e 26 78
e 26 79
e 26 80
e 26 81
e 26 83
e 26 84
e 26 85
e 26 86
e 26 88
e 26 89
e 26 90
e 26 91
e 26 92
e 27 31
e 27 32
e 27 38
e 27 39
e 27 40
e 27 42
e 27 43
e 27 44
e 27 45
e 27 48
e 27 49
e 27 50
e 27 51
e 27 52
e 27 53
e 27 54
e 27 57
e 27 59
e 27 60
e 27 61
e 27 65
e 27 66
e 27 69
e 27 70
e 27 73
e 27 74
e 27 76
e 27 77
e 27 78
e 27 79
e 27 80
e 27 81
e 27 82
e 27 83
e 27 84
e 27 85
e 27 89
e 27 91
e 27 92
e 28 31
e 28 32
e 28 33
e 28 38
e 28 39
e 28 40
e 28 42
e 28 43
e 28 44
e 28 45
e 28 48
e 28 49
e 28 50
e 28 51
e 28 52
e 28 53
e 28 54
e 28 57
e 28 59
e 28 60
e 28 61
e 28 65
e 28 69
e 28 70
e 28 73
e 28 74
e 28 76
e 28 77
e 28 79
e 28 80
e 28 81
e 28 82
e 28 83
e 28 86
e 28 89
e 28 91
e 28 92
e 29 31
e 29 32
e 29 33
e 29 38
e 29 39
e 29 42
e 29 43
e 29 44
e 29 45
e 29 48
e 29 49
e 29 50
e 29 51
e 29 52
e 29 53
e 29 57
e 29 59
e 29 60
e 29 61
e 29 65
e 29 69
e 29 73
e 29 74
e 29 75
e 29 76
e 29 77
e 29 79
e 29 80
e 29 81
e 29 82
e 29 83
e 29 88
e 29 89
e 29 91
e 29 92
e 30 34
e 30 35
e 30 36
e 30 37
e 30 39
e 30 41
e 30 42
e 30 46
e 30 47
e 30 48
e 30 49
e 30 50
e 30 55
e 30 58
e 30 64
e 30 68
e 30 79
e 30 81
e 30 82
e 30 87
e 30 92
e 31 32
e 31 33
e 31 34
e 31 38
e 31 39
e 31 40
e 31 42
e 31 43
e 31 44
e 31 45
e 31 48
e 31 49
e 31 50
e 31 51
e 31 52
e 31 53
e 31 54
e 31 55
e 31 56
e 31 57
e 31 59
e 31 60
e 31 61
e 31 62
e 31 63
e 31 64
e 31 65
e 31 66
e 31 67
e 31 69
e 31 70
e 31 71
e 31 72
e 31 73
e 31 74
e 31 75
e 31 76
e 31 77
e 31 78
e 31 79
e 31 80
e 31 81
e 31 82
e 31 83
e 31 84
e 31 85
e 31 86
e 31 87
e 31 88
e 31 89
e 31 90
e 31 91
e 31 92
e 32 33
e 32 34
e 32 38
e 32 39
e 32 40
e 32 42
e 32 43
e 32 44
e 32 45
e 32 48
e 32 49
e 32 50
e 32 51
e 32 52
e 32 53
e 32 54
e 32 55
e 32 56
e 32 57
e 32 59
e 32 60
e 32 61
e 32 62
e 32 63
e 32 64
e 32 65
e 32 66
e 32 67
e 32 69
e 32 70
e 32 71
e 32 72
e 32 73
e 32 74
e 32 75
e 32 76
e 32 77
e 32 78
e 32 79
e 32 80
e 32 81
e 32 82
e 32 83
e 32 84
e 32 85
e 32 86
e 32 87
e 32 88
e 32 89
e 32 90
e 32 91
e 32 92
e 33 34
e 33 38
e 33 39
e 33 40
e 33 42
e 33 43
e 33 44
e 33 45
e 33 48
e 33 49
e 33 50
e 33 51
e 33 52
e 33 53
e 33 54
e 33 55
e 33 56
e 33 57
e 33 59
e 33 60
e 33 61
e 33 63
e 33 64
e 33 65
e 33 69
e 33 70
e 33 72
e 33 73
e 33 74
e 33 75
e 33 76
e 33 77
e 33 79
e 33 80
e 33 81
e 33 82
e 33 83
e 33 84
e 33 86
e 33 87
e 33 88
e 33 89
e 33 91
e 33 92
e 34 35
e 34 36
e 34 37
e 34 38
e 34 39
e 34 41
e 34 43
e 34 44
e 34 46
e 34 47
e 34 51
e 34 52
e 34 53
e 34 54
e 34 55
e 34 56
e 34 57
e 34 58
e 34 59
e 34 60
e 34 64
e 34 65
e 34 68
e 34 73
e 34 76
e 34 80
e 34 82
e 34 87
e 34 89
e 34 91
e 35 36
e 35 37
e 35 39
e 35 41
e 35 42
e 35 46
e 35 47
e 35 48
e 35 49
e 35 50
e 35 55
e 35 58
e 35 64
e 35 68
e 35 69
e 35 74
e 35 79
e 35 81
e 35 82
e 35 87
e 35 92
e 36 37
e 36 39
e 36 41
e 36 42
e 36 46
e 36 47
e 36 48
e 36 49
e 36 50
e 36 55
e 36 58
e 36 64
e 36 68
e 36 79
e 36 81
e 36 82
e 36 87
e 36 92
e 37 39
e 37 41
e 37 46
e 37 47
e 37 55
e 37 58
e 37 64
e 37 65
e 37 68
e 37 80
e 37 82
e 37 87
e 37 91
e 38 39
e 38 40
e 38 42
e 38 43
e 38 44
e 38 45
e 38 48
e 38 49
e 38 50
e 38 51
e 38 52
e 38 53
e 38 54
e 38 55
e 38 56
e 38 57
e 38 59
e 38 60
e 38 61
e 38 62
e 38 63
e 38 64
e 38 65
e 38 66
e 38 67
e 38 69
e 38 70
e 38 71
e 38 72
e 38 73
e 38 74
e 38 75
e 38 76
e 38 77
e 38 78
e 38 79
e 38 80
e 38 81
e 38 82
e 38 83
e 38 84
e 38 85
e 38 86
e 38 87
e 38 88
e 38 89
e 38 90
e 38 91
e 38 92
e 39 40
e 39 41
e 39 43
e 39 44
e 39 46
e 39 47
e 39 51
e 39 52
e 39 53
e 39 54
e 39 55
e 39 56
e 39 57
e 39 58
e 39 59
e 39 60
e 39 61
e 39 62
e 39 63
e 39 64
e 39 65
e 39 66
e 39 67
e 39 68
e 39 70
e 39 71
e 39 72
e 39 73
e 39 75
e 39 76
e 39 78
e 39 80
e 39 82
e 39 84
e 39 85
e 39 86
e 39 87
e 39 88
e 39 89
e 39 90
e 39 91
e 40 42
e 40 43
e 40 44
e 40 45
e 40 48
e 40 49
e 40 50
e 40 51
e 40 52
e 40 53
e 40 54
e 40 57
e 40 59
e 40 60
e 40 61
e 40 62
e 40 63
e 40 65
e 40 66
e 40 67
e 40 69
e 40 70
e 40 71
e 40 72
e 40 73
e 40 74
e 40 75
e 40 76
e 40 77
e 40 78
e 40 79
e 40 80
e 40 81
e 40 82
e 40 83
e 40 84
e 40 85
e 40 86
e 40 89
e 40 90
e 40 91
e 40 92
e 41 46
e 41 47
e 41 55
e 41 58
e 41 64
e 41 68
e 41 80
e 41 82
e 41 87
e 41 91
e 42 43
e 42 44
e 42 45
e 42 46
e 42 47
e 42 48
e 42 49
e 42 50
e 42 51
e 42 52
e 42 53
e 42 54
e 42 56
e 42 57
e 42 58
e 42 59
e 42 60
e 42 61
e 42 62
e 42 63
e 42 65
e 42 66
e 42 67
e 42 68
e 42 69
e 42 70
e 42 71
e 42 72
e 42 73
e 42 74
e 42 75
e 42 76
e 42 77
e 42 78
e 42 79
e 42 80
e 42 81
e 42 83
e 42 84
e 42 85
e 42 86
e 42 88
e 42 89
e 42 90
e 42 91
e 42 92
e 43 44
e 43 45
e 43 48
e 43 49
e 43 50
e 43 51
e 43 52
e 43 53
e 43 54
e 43 55
e 43 56
e 43 57
e 43 59
e 43 60
e 43 61
e 43 62
e 43 63
e 43 64
e 43 65
e 43 66
e 43 67
e 43 69
e 43 70
e 43 71
e 43 72
e 43 73
e 43 74
e 43 75
e 43 76
e 43 77
e 43 78
e 43 79
e 43 80
e 43 81
e 43 82
e 43 83
e 43 84
e 43 85
e 43 86
e 43 87
e 43 88
e 43 89
e 43 90
e 43 91
e 43 92
e 44 45
e 44 48
e 44 49
e 44 50
e 44 51
e 44 52
e 44 53
e 44 54
e 44 55
e 44 57
e 44 59
e 44 60
e 44 61
e 44 62
e 44 63
e 44 64
e 44 65
e 44 66
e 44 67
e 44 69
e 44 70
e 44 71
e 44 72
e 44 73
e 44 74
e 44 75
e 44 76
e 44 77
e 44 78
e 44 79
e 44 80
e 44 81
e 44 82
e 44 83
e 44 84
e 44 85
e 44 86
e 44 87
e 44 88
e 44 89
e 44 90
e 44 91
e 44 92
e 45 46
e 45 48
e 45 49
e 45 50
e 45 51
e 45 52
e 45 53
e 45 54
e 45 56
e 45 57
e 45 59
e 45 60
e 45 61
e 45 62
e 45 63
e 45 65
e 45 66
e 45 67
e 45 68
e 45 69
e 45 70
e 45 71
e 45 72
e 45 73
e 45 74
e 45 75
e 45 76
e 45 77
e 45 78
e 45 79
e 45 80
e 45 81
e 45 83
e 45 84
e 45 85
e 45 86
e 45 88
e 45 89
e 45 90
e 45 91
e 45 92
e 46 47
e 46 48
e 46 49
e 46 50
e 46 55
e 46 58
e 46 64
e 46 68
e 46 69
e 46 74
e 46 79
e 46 81
e 46 82
e 46 87
e 46 92
e 47 48
e 47 49
e 47 50
e 47 55
e 47 58
e 47 64
e 47 68
e 47 79
e 47 81
e 47 82
e 47 87
e 47 92
e 48 49
e 48 50
e 48 51
e 48 52
e 48 53
e 48 54
e 48 56
e 48 57
e 48 58
e 48 59
e 48 60
e 48 61
e 48 62
e 48 63
e 48 65
e 48 66
e 48 67
e 48 68
e 48 69
e 48 70
e 48 71
e 48 72
e 48 73
e 48 74
e 48 75
e 48 76
e 48 77
e 48 78
e 48 79
e 48 80
e 48 81
e 48 83
e 48 84
e 48 85
e 48 86
e 48 88
e 48 89
e 48 90
e 48 91
e 48 92
e 49 50
e 49 51
e 49 52
e 49 53
e 49 54
e 49 56
e 49 57
e 49 58
e 49 59
e 49 60
e 49 61
e 49 62
e 49 63
e 49 65
e 49 66
e 49 67
e 49 68
e 49 69
e 49 70
e 49 71
e 49 72
e 49 73
e 49 74
e 49 75
e 49 76
e 49 77
e 49 78
e 49 79
e 49 80
e 49 81
e 49 83
e 49 84
e 49 85
e 49 86
e 49 88
e 49 89
e 49 90
e 49 91
e 49 92
e 50 51
e 50 52
e 50 53
e 50 54
e 50 56
e 50 57
e 50 58
e 50 59
e 50 60
e 50 61
e 50 62
e 50 63
e 50 65
e 50 66
e 50 67
e 50 68
e 50 69
e 50 70
e 50 71
e 50 72
e 50 73
e 50 74
e 50 75
e 50 76
e 50 77
e 50 78
e 50 79
e 50 80
e 50 81
e 50 83
e 50 84
e 50 85
e 50 86
e 50 88
e 50 89
e 50 90
e 50 91
e 50 92
e 51 52
e 51 53
e 51 54
e 51 55
e 51 56
e 51 57
e 51 59
e 51 60
e 51 61
e 51 62
e 51 63
e 51 64
e 51 65
e 51 66
e 51 67
e 51 69
e 51 70
e 51 71
e 51 72
e 51 73
e 51 74
e 51 75
e 51 76
e 51 77
e 51 78
e 51 79
e 51 80
e 51 81
e 51 82
e 51 83
e 51 84
e 51 85
e 51 86
e 51 87
e 51 88
e 51 89
e 51 90
e 51 91
e 51 92
e 52 53
e 52 54
e 52 55
e 52 57
e 52 59
e 52 60
e 52 61
e 52 62
e 52 63
e 52 64
e 52 65
e 52 66
e 52 67
e 52 69
e 52 70
e 52 71
e 52 72
e 52 73
e 52 74
e 52 75
e 52 76
e 52 77
e 52 78
e 52 79
e 52 80
e 52 81
e 52 82
e 52 83
e 52 84
e 52 85
e 52 86
e 52 87
e 52 88
e 52 89
e 52 90
e 52 91
e 52 92
e 53 54
e 53 55
e 53 57
e 53 59
e 53 60
e 53 61
e 53 62
e 53 63
e 53 64
e 53 65
e 53 66
e 53 67
e 53 69
e 53 70
e 53 71
e 53 72
e 53 73
e 53 74
e 53 75
e 53 76
e 53 77
e 53 78
e 53 79
e 53 80
e 53 81
e 53 82
e 53 83
e 53 84
e 53 85
e 53 86
e 53 87
e 53 88
e 53 89
e 53 90
e 53 91
e 53 92
e 54 55
e 54 57
e 54 59
e 54 60
e 54 61
e 54 62
e 54 63
e 54 64
e 54 65
e 54 66
e 54 67
e 54 69
e 54 70
e 54 71
e 54 73
e 54 74
e 54 76
e 54 77
e 54 78
e 54 79
e 54 80
e 54 81
e 54 82
e 54 83
e 54 84
e 54 85
e 54 86
e 54 87
e 54 89
e 54 90
e 54 91
e 54 92
e 55 56
e 55 57
e 55 58
e 55 59
e 55 60
e 55 64
e 55 65
e 55 68
e 55 73
e 55 76
e 55 80
e 55 82
e 55 87
e 55 89
e 55 91
e 56 57
e 56 59
e 56 61
e 56 64
e 56 65
e 56 69
e 56 73
e 56 74
e 56 76
e 56 77
e 56 79
e 56 80
e 56 81
e 56 82
e 56 83
e 56 87
e 56 89
e 56 91
e 56 92
e 57 59
e 57 60
e 57 61
e 57 62
e 57 63
e 57 64
e 57 65
e 57 66
e 57 67
e 57 69
e 57 70
e 57 71
e 57 72
e 57 73
e 57 74
e 57 75
e 57 76
e 57 77
e 57 78
e 57 79
e 57 80
e 57 81
e 57 82
e 57 83
e 57 84
e 57 85
e 57 86
e 57 87
e 57 88
e 57 89
e 57 90
e 57 91
e 57 92
e 58 64
e 58 68
e 58 74
e 58 79
e 58 81
e 58 82
e 58 87
e 58 92
e 59 60
e 59 61
e 59 62
e 59 63
e 59 64
e 59 65
e 59 66
e 59 67
e 59 69
e 59 70
e 59 71
e 59 72
e 59 73
e 59 74
e 59 75
e 59 76
e 59 77
e 59 78
e 59 79
e 59 80
e 59 81
e 59 82
e 59 83
e 59 84
e 59 85
e 59 86
e 59 87
e 59 88
e 59 89
e 59 90
e 59 91
e 59 92
e 60 61
e 60 62
e 60 63
e 60 64
e 60 65
e 60 66
e 60 67
e 60 69
e 60 70
e 60 71
e 60 72
e 60 73
e 60 74
e 60 75
e 60 76
e 60 77
e 60 78
e 60 79
e 60 80
e 60 81
e 60 82
e 60 83
e 60 84
e 60 85
e 60 86
e 60 87
e 60 88
e 60 89
e 60 90
e 60 91
e 60 92
e 61 62
e 61 63
e 61 65
e 61 66
e 61 67
e 61 69
e 61 70
e 61 71
e 61 72
e 61 73
e 61 74
e 61 75
e 61 76
e 61 77
e 61 78
e 61 79
e 61 80
e 61 81
e 61 82
e 61 83
e 61 84
e 61 85
e 61 86
e 61 88
e 61 89
e 61 90
e 61 91
e 61 92
e 62 65
e 62 66
e 62 69
e 62 70
e 62 73
e 62 74
e 62 76
e 62 77
e 62 78
e 62 79
e 62 80
e 62 81
e 62 82
e 62 83
e 62 84
e 62 89
e 62 91
e 62 92
e 63 65
e 63 69
e 63 70
e 63 73
e 63 74
e 63 76
e 63 77
e 63 79
e 63 80
e 63 81
e 63 82
e 63 83
e 63 84
e 63 89
e 63 91
e 63 92
e 64 65
e 64 68
e 64 73
e 64 76
e 64 80
e 64 82
e 64 87
e 64 89
e 64 91
e 65 66
e 65 67
e 65 69
e 65 70
e 65 71
e 65 72
e 65 73
e 65 74
e 65 75
e 65 76
e 65 77
e 65 78
e 65 79
e 65 80
e 65 81
e 65 82
e 65 83
e 65 84
e 65 85
e 65 86
e 65 87
e 65 88
e 65 89
e 65 90
e 65 91
e 65 92
e 66 69
e 66 70
e 66 73
e 66 74
e 66 76
e 66 77
e 66 78
e 66 79
e 66 80
e 66 81
e 66 82
e 66 83
e 66 84
e 66 85
e 66 89
e 66 91
e 66 92
e 67 69
e 67 70
e 67 71
e 67 73
e 67 74
e 67 76
e 67 77
e 67 79
e 67 80
e 67 81
e 67 82
e 67 83
e 67 84
e 67 85
e 67 89
e 67 90
e 67 91
e 67 92
e 68 69
e 68 74
e 68 79
e 68 81
e 68 82
e 68 83
e 68 87
e 68 92
e 69 70
e 69 71
e 69 72
e 69 73
e 69 74
e 69 75
e 69 76
e 69 77
e 69 78
e 69 79
e 69 80
e 69 81
e 69 83
e 69 84
e 69 85
e 69 86
e 69 88
e 69 89
e 69 90
e 69 91
e 69 92
e 70 71
e 70 73
e 70 74
e 70 76
e 70 77
e 70 78
e 70 79
e 70 80
e 70 81
e 70 82
e 70 83
e 70 84
e 70 85
e 70 86
e 70 89
e 70 90
e 70 91
e 70 92
e 71 73
e 71 74
e 71 76
e 71 77
e 71 79
e 71 80
e 71 81
e 71 82
e 71 83
e 71 89
e 71 90
e 71 91
e 71 92
e 72 73
e 72 74
e 72 75
e 72 76
e 72 77
e 72 79
e 72 80
e 72 81
e 72 82
e 72 83
e 72 89
e 72 91
e 72 92
e 73 74
e 73 75
e 73 76
e 73 77
e 73 78
e 73 79
e 73 80
e 73 81
e 73 82
e 73 83
e 73 84
e 73 85
e 73 86
e 73 87
e 73 88
e 73 89
e 73 90
e 73 91
e 73 92
e 74 75
e 74 76
e 74 77
e 74 78
e 74 79
e 74 80
e 74 81
e 74 83
e 74 84
e 74 85
e 74 86
e 74 88
e 74 89
e 74 90
e 74 91
e 74 92
e 75 76
e 75 77
e 75 79
e 75 80
e 75 81
e 75 82
e 75 83
e 75 88
e 75 89
e 75 91
e 75 92
e 76 77
e 76 78
e 76 79
e 76 80
e 76 81
e 76 82
e 76 83
e 76 84
e 76 85
e 76 86
e 76 87
e 76 88
e 76 89
e 76 90
e 76 91
e 76 92
e 77 78
e 77 79
e 77 80
e 77 81
e 77 83
e 77 84
e 77 85
e 77 86
e 77 88
e 77 89
e 77 90
e 77 91
e 77 92
e 78 79
e 78 80
e 78 81
e 78 82
e 78 83
e 78 84
e 78 85
e 78 89
e 78 91
e 78 92
e 79 80
e 79 81
e 79 83
e 79 84
e 79 85
e 79 86
e 79 88
e 79 89
e 79 90
e 79 91
e 79 92
e 80 81
e 80 82
e 80 83
e 80 84
e 80 85
e 80 86
e 80 87
e 80 88
e 80 89
e 80 90
e 80 91
e 80 92
e 81 83
e 81 84
e 81 85
e 81 86
e 81 88
e 81 89
e 81 90
e 81 91
e 81 92
e 82 84
e 82 85
e 82 86
e 82 87
e 82 88
e 82 89
e 82 90
e 82 91
e 83 84
e 83 85
e 83 86
e 83 88
e 83 89
e 83 90
e 83 91
e 83 92
e 84 85
e 84 89
e 84 90
e 84 91
e 84 92
e 85 89
e 85 91
e 85 92
e 86 89
e 86 91
e 86 92
e 87 89
e 87 91
e 88 89
e 88 91
e 88 92
e 89 90
e 89 91
e 89 92
e 90 91
e 90 92
e 91 92
